p cnf 23 8
a 1 2 3 4 5 6 7 0
e 8 9 10 11 0
a 12 0
e 13 0
a 14 0
e 15 16 17 0
a 18 0
e 19 20 0
a 21 22 0
e 23 0
-23 -1 -10 22 18 0
-5 16 -1 0
5 -17 23 -21 -14 0
19 10 13 -18 -12 0
15 -19 -10 4 0
-1 22 -2 3 0
-18 -21 4 0
-9 -13 -14 2 0
